; benchmark generated from python API
(set-info :status unknown)
(declare-fun S_1 () Real)
(declare-fun S_2 () Real)
(declare-fun S_0 () Real)
(declare-fun L_0 () Real)
(declare-fun A_0 () Real)
(declare-fun S_3 () Real)
(declare-fun S_4 () Real)
(declare-fun A_3 () Real)
(declare-fun L_3 () Real)
(declare-fun L_2 () Real)
(declare-fun A_2 () Real)
(declare-fun A_1 () Real)
(declare-fun L_1 () Real)
(declare-fun A_4 () Real)
(assert
 (let ((?x820 (* (- 1.0) A_3)))
 (let ((?x1212 (* (- 1.0) S_1)))
 (let ((?x12105 (* (/ 2.0 3.0) S_4)))
 (let ((?x14487 (* (/ 1.0 3.0) A_1)))
 (let ((?x15010 (* (- (/ 4.0 3.0)) L_1)))
 (let (($x11598 (<= (+ (* (- 1.0) L_2) L_3) 0.0)))
 (let ((?x731 (* (- 1.0) L_1)))
 (let ((?x7354 (* (- (/ 1.0 2.0)) L_2)))
 (let ((?x7380 (* (/ 1.0 2.0) A_2)))
 (let ((?x7376 (* (/ 1.0 2.0) S_4)))
 (let ((?x2747 (* (- (/ 1.0 4.0)) L_0)))
 (let ((?x2777 (* (/ 5.0 4.0) A_0)))
 (let ((?x2753 (* (/ 3.0 4.0) S_4)))
 (let (($x1321 (<= (+ ?x731 ?x1212 A_0) 0.0)))
 (let (($x98545 (or $x1321 (<= (+ ?x2753 ?x2777 ?x2747 ?x1212 ?x731 L_3 ?x820) 0.0) (<= (+ ?x7376 ?x7380 ?x7354 ?x731 ?x1212 L_3 A_0 ?x820) 0.0) $x11598 (<= (+ ?x15010 ?x14487 ?x12105 ?x1212 L_3 A_0 ?x820) 0.0))))
 (let ((?x13834 (* (/ 3.0 2.0) S_2)))
 (let ((?x1748 (* (/ 1.0 2.0) L_0)))
 (let ((?x1798 (* (/ 1.0 2.0) A_0)))
 (let (($x9758 (<= (+ (* (- 1.0) A_1) (* 2.0 S_2) ?x1212 L_3 A_0 ?x820) 0.0)))
 (let ((?x2048 (* (- 2.0) A_0)))
 (let ((?x2044 (* 2.0 L_0)))
 (let ((?x2380 (* (- 2.0) S_3)))
 (let ((?x1514 (* 4.0 A_1)))
 (let ((?x1797 (* (- 4.0) L_1)))
 (let (($x12853 (not (<= (+ ?x1797 ?x1514 ?x2380 ?x2044 ?x2048) 0.0))))
 (let (($x9685 (<= (+ A_1 ?x2380 S_0 (* (- 1.0) L_3) (* (- 1.0) A_0) A_3) 0.0)))
 (let (($x1282 (<= (+ A_2 (* (- 1.0) L_2) (* (- 1.0) S_3)) 0.0)))
 (let ((?x722 (* (- 1.0) L_0)))
 (let (($x663 (= ?x731 ?x722)))
 (let (($x9488 (<= (+ (* (- 1.0) A_0) L_0 S_2 L_3 ?x731 A_1 ?x820) 0.0)))
 (let ((?x1490 (* (- 2.0) A_2)))
 (let ((?x1489 (* 2.0 A_1)))
 (let ((?x3229 (* 2.0 L_2)))
 (let ((?x2039 (* (- 2.0) L_1)))
 (let ((?x1747 (* (- (/ 1.0 2.0)) A_0)))
 (let (($x16368 (<= (+ ?x7376 ?x1747 ?x1748 ?x2039 ?x3229 ?x1489 ?x1490) 0.0)))
 (let (($x1496 (<= (+ ?x731 L_2) 0.0)))
 (let ((?x735 (* (- 1.0) A_2)))
 (let ((?x1778 (* (- (/ 1.0 2.0)) L_0)))
 (let ((?x1886 (* (/ 3.0 2.0) A_0)))
 (let ((?x9484 (* (/ 1.0 3.0) S_4)))
 (let ((?x14530 (* (/ 2.0 3.0) A_1)))
 (let ((?x14990 (* (- (/ 5.0 3.0)) L_1)))
 (let (($x97263 (or $x1321 $x1496 (<= (+ ?x14990 ?x14530 ?x9484 ?x1212 L_2 A_0 ?x735) 0.0) (<= (+ ?x7376 ?x1886 ?x1778 ?x1212 ?x731 L_2 ?x735) 0.0))))
 (let ((?x1499 (* 2.0 A_0)))
 (let ((?x11776 (* 2.0 S_4)))
 (let ((?x2041 (* (- 2.0) A_3)))
 (let ((?x2040 (* 2.0 L_3)))
 (let (($x97609 (or $x1321 $x1496 (<= (+ ?x2040 ?x2041 ?x11776 ?x1499 ?x722 ?x1212 ?x731 L_2 ?x735) 0.0) (<= (+ L_3 ?x820 S_4 ?x2039 A_1 ?x1212 L_2 A_0 ?x735) 0.0))))
 (let (($x22006 (<= (+ L_3 ?x820 S_4 ?x731 A_1 L_2 ?x735) 0.0)))
 (let (($x36623 (or $x1282 (<= (+ L_3 ?x820 S_4 ?x731 A_1 (* (- 1.0) S_3)) 0.0) (<= (+ L_3 ?x820 S_4 A_0 ?x722 L_1 (* (- 1.0) A_1)) 0.0))))
 (let ((?x11876 (* (/ 2.0 3.0) S_3)))
 (let ((?x11940 (* (/ 2.0 3.0) L_0)))
 (let ((?x11939 (* (- (/ 2.0 3.0)) A_0)))
 (let (($x11954 (<= (+ ?x11939 ?x11940 ?x11876 ?x3229 ?x2039 ?x1489 ?x1490) 0.0)))
 (let (($x3947 (<= (+ (* (- 1.0) A_0) L_0 S_2 ?x2039 ?x3229 ?x1489 ?x1490) 0.0)))
 (let ((?x1783 (* (/ 1.0 2.0) S_3)))
 (let ((?x14546 (* (/ 1.0 2.0) A_1)))
 (let ((?x14543 (* (- (/ 3.0 2.0)) L_1)))
 (let (($x11932 (<= (+ (* (/ 4.0 3.0) A_0) (* (- (/ 1.0 3.0)) L_0) ?x11876 ?x1212 L_2 ?x731 ?x735) 0.0)))
 (let (($x95159 (or $x1321 $x1496 $x11932 (<= (+ ?x14543 ?x14546 ?x1783 ?x1212 L_2 A_0 ?x735) 0.0))))
 (let (($x17708 (<= (+ S_4 (* (- 1.0) A_0) L_0 ?x2040 ?x2039 ?x1489 ?x2041) 0.0)))
 (let ((?x758 (* (- 1.0) A_0)))
 (let ((?x740 (* (- 1.0) L_2)))
 (let (($x3632 (<= (+ A_2 ?x740 ?x758 L_0 L_3 ?x731 A_1 ?x820) 0.0)))
 (let ((?x2443 (* (- 3.0) A_3)))
 (let ((?x1344 (* 3.0 A_1)))
 (let ((?x2448 (* 3.0 L_3)))
 (let ((?x2453 (* (- 3.0) L_1)))
 (let ((?x2440 (* 2.0 S_3)))
 (let (($x2455 (<= (+ ?x2048 ?x2044 ?x2440 ?x2453 ?x2448 ?x1344 ?x2443) 0.0)))
 (let ((?x8139 (+ (* (- 6.0) A_0) (* 6.0 L_0) (* 6.0 S_1) ?x2453 ?x2448 ?x1344 ?x2443)))
 (let (($x8140 (<= ?x8139 0.0)))
 (let (($x1293 (<= (+ ?x731 A_1 (* (- 1.0) S_2)) 0.0)))
 (let (($x1248 (<= (+ (* (- 1.0) L_3) A_3 (* (- 1.0) S_4)) 0.0)))
 (let (($x31078 (or $x1248 (<= (+ (* (- (/ 1.0 3.0)) S_4) ?x11939 ?x11940 S_1) 0.0) (<= (+ (* (- 1.0) S_4) A_2 ?x740 ?x758 L_0 S_1) 0.0))))
 (let ((?x2428 (* 3.0 A_3)))
 (let ((?x1471 (* (- 3.0) A_1)))
 (let ((?x2431 (* 3.0 L_1)))
 (let ((?x2427 (* (- 3.0) L_3)))
 (let ((?x2033 (* (- 2.0) L_0)))
 (let ((?x10890 (* (- 2.0) S_4)))
 (let (($x2028 (<= (+ (* (- 1.0) S_4) ?x758 S_0 L_1 (* (- 1.0) L_3) A_3) 0.0)))
 (let (($x99293 (or $x663 $x1248 $x2028 (<= (+ ?x10890 ?x1499 ?x2033 ?x2427 ?x2431 ?x1471 ?x2428) 0.0))))
 (let ((?x2014 (* 2.0 A_3)))
 (let ((?x1989 (* (- 2.0) L_3)))
 (let ((?x2010 (* 2.0 L_1)))
 (let ((?x1984 (* 2.0 S_0)))
 (let ((?x1983 (* (- 3.0) S_3)))
 (let ((?x744 (* (- 1.0) A_1)))
 (let ((?x785 (* (- 1.0) S_3)))
 (let ((?x749 (* (- 1.0) L_3)))
 (let (($x1775 (not (<= (+ ?x1798 ?x1783 ?x1778 L_1 ?x744) 0.0))))
 (let (($x45787 (or $x663 $x1282 $x1775 (<= (+ ?x749 A_3 A_0 ?x785 ?x722 L_1 ?x744) 0.0) (<= (+ ?x758 ?x722 ?x1983 ?x1984 ?x2010 ?x1989 ?x2014) 0.0))))
 (let (($x1993 (not (<= (+ (* (- 4.0) A_0) ?x2044 ?x1984 ?x731 L_3 ?x1344 ?x820) 0.0))))
 (let (($x98496 (or $x663 $x1293 $x1993 (<= (+ A_0 ?x2033 (* (- 3.0) S_2) S_0 L_1 ?x749 A_3) 0.0))))
 (let (($x96987 (or $x663 $x1293 (<= (+ ?x1499 ?x2033 (* (- 2.0) S_2) ?x749 L_1 ?x744 A_3) 0.0) (<= (+ ?x758 (* (- 1.0) S_2) S_0 A_1) 0.0))))
 (let (($x9151 (<= (+ (* (- (/ 2.0 3.0)) S_4) (* (- (/ 1.0 3.0)) A_0) (* (/ 1.0 3.0) L_0) S_2) 0.0)))
 (let (($x3989 (<= (+ ?x758 L_0 S_3 ?x2453 (* 3.0 L_2) ?x1344 (* (- 3.0) A_2)) 0.0)))
 (let (($x9884 (<= (+ (* 2.0 A_2) (* (- 2.0) L_2) L_1 ?x744 L_3 ?x820) 0.0)))
 (let ((?x1326 (* 3.0 A_2)))
 (let ((?x2072 (* (- 3.0) L_2)))
 (let (($x2076 (<= (+ ?x2048 L_0 S_0 L_1 ?x2072 ?x2040 ?x1326 ?x2041) 0.0)))
 (let (($x4119 (<= (+ L_1 ?x744 S_2 L_3 ?x740 A_2 ?x820) 0.0)))
 (let ((?x1474 (* 2.0 A_2)))
 (let ((?x3273 (* (- 2.0) L_2)))
 (let (($x9316 (<= (+ ?x2010 ?x744 S_0 L_3 ?x3273 ?x758 ?x1474 ?x820) 0.0)))
 (let (($x2810 (<= (+ ?x2753 (* (- (/ 3.0 4.0)) A_0) (* (/ 3.0 4.0) L_0) ?x2072 ?x2448 ?x1326 ?x2443) 0.0)))
 (let ((?x11927 (* (/ 1.0 3.0) L_0)))
 (let ((?x9797 (* (- (/ 2.0 3.0)) S_4)))
 (let (($x4002 (<= (+ (* (- 1.0) S_4) A_0 ?x722 ?x2431 ?x2072 ?x1471 ?x1326) 0.0)))
 (let (($x49039 (or $x663 $x1248 $x4002 (<= (+ ?x9797 (* (- (/ 4.0 3.0)) A_0) ?x11927 S_0 L_1 ?x740 A_2) 0.0))))
 (let (($x94998 (or $x663 $x1248 $x4002 (<= (+ ?x2431 ?x744 (* (- 1.0) S_4) ?x1984 ?x3273 ?x2048 ?x1474) 0.0))))
 (let (($x3291 (<= (+ A_0 ?x722 ?x749 L_1 L_2 ?x744 ?x735 A_3) 0.0)))
 (let (($x99189 (or $x1248 (not (<= (+ ?x2048 ?x2044 ?x2440 ?x1344 ?x2443) 0.0)) $x2455 $x3632 (not $x9884))))
 (let (($x95833 (or $x1282 (<= (+ L_1 ?x744 (* 2.0 S_2) L_3 ?x820) 0.0) $x11598)))
 (let (($x24115 (or $x1282 $x1775 (<= (+ L_3 ?x820 S_4 ?x1798 (* (- (/ 1.0 2.0)) S_3) ?x1778) 0.0))))
 (let (($x3610 (<= (+ ?x735 L_2 (* (- 1.0) S_2) ?x722 S_0 ?x749 L_1 A_3) 0.0)))
 (let (($x98060 (or $x663 $x1293 (<= (+ A_2 ?x740 A_0 (* (- 1.0) S_2) ?x722 L_1 ?x744) 0.0) (<= (+ ?x722 (* (- 2.0) S_2) S_0 ?x740 L_1 A_2) 0.0))))
 (let (($x18953 (or $x1293 (<= (+ L_3 ?x820 S_4 A_0 ?x722 (* (- 1.0) S_2)) 0.0))))
 (let (($x99141 (or $x1282 $x1496 (<= (+ ?x749 A_3 ?x1798 (* (- (/ 1.0 2.0)) S_3) ?x1778 L_2 ?x735) 0.0) (<= (+ ?x731 A_1 ?x785 ?x749 L_2 ?x735 A_3) 0.0))))
 (let (($x3275 (<= (+ ?x758 L_0 S_1 L_3 ?x740 A_2 ?x820) 0.0)))
 (let (($x94850 (or $x1248 (<= (+ L_1 ?x744 (* (- 1.0) S_4) (* 2.0 S_2)) 0.0))))
 (let (($x4721 (<= (+ ?x758 L_0 S_1 ?x731 L_2 A_1 ?x735) 0.0)))
 (let (($x4525 (<= (+ ?x1499 ?x722 ?x1212 ?x1989 ?x731 (* 3.0 L_2) (* (- 3.0) A_2) ?x2014) 0.0)))
 (let (($x98073 (or $x1321 $x1496 (<= (+ ?x2039 A_1 ?x1212 ?x749 ?x3229 A_0 ?x1490 A_3) 0.0) $x4525)))
 (let (($x1831 (<= (+ ?x758 ?x785 S_0 L_1 ?x740 A_2) 0.0)))
 (let (($x97660 (or $x663 $x1775 $x1831 (<= (+ A_0 ?x722 ?x785 ?x2010 ?x3273 (* (- 2.0) A_1) ?x1474) 0.0))))
 (let (($x15360 (or $x1282 (<= (+ ?x2753 (* (/ 9.0 4.0) A_0) (* (- (/ 9.0 4.0)) L_0) ?x2431 ?x1471) 0.0) (<= (+ (* (- (/ 2.0 3.0)) L_1) ?x14530 ?x9484 ?x785) 0.0))))
 (let (($x10654 (or $x1282 $x1775 (<= (+ (* (/ 3.0 2.0) S_4) ?x1886 (* (- (/ 3.0 2.0)) L_0) ?x1983) 0.0))))
 (let (($x2452 (<= (+ ?x758 L_0 S_3 ?x2072 ?x2448 ?x1326 ?x2443) 0.0)))
 (let ((?x1468 (* (- 3.0) A_2)))
 (let ((?x2058 (* 3.0 L_2)))
 (let ((?x1189 (* (- 1.0) S_4)))
 (let (($x96241 (or $x1248 $x1496 (<= (+ ?x1189 A_0 ?x722 ?x2427 ?x2058 ?x1468 ?x2428) 0.0) (<= (+ ?x731 A_1 ?x1189 ?x1989 ?x3229 ?x1490 ?x2014) 0.0))))
 (let ((?x1294 (* (- 1.0) S_2)))
 (let ((?x7347 (* (/ 1.0 2.0) L_2)))
 (let ((?x7348 (* (- (/ 1.0 2.0)) A_2)))
 (let (($x4047 (<= (+ S_4 ?x758 L_0 ?x1797 (* 4.0 L_2) ?x1514 (* (- 4.0) A_2)) 0.0)))
 (let (($x651 (= ?x749 ?x740)))
 (let (($x94962 (or $x651 $x663 $x1293 (= (+ ?x731 ?x3229 ?x749 A_1 ?x1490 A_3) 0.0) $x2076 (not (<= (+ ?x749 ?x731 ?x3229 A_1 ?x1490 A_3) 0.0)))))
 (let (($x2806 (<= (+ ?x2753 (* (- (/ 3.0 4.0)) A_0) (* (/ 3.0 4.0) L_0) ?x1326 ?x2443) 0.0)))
 (let (($x94990 (or $x1293 $x1496 (<= (+ A_0 ?x722 ?x1294 ?x749 L_2 ?x735 A_3) 0.0))))
 (let (($x2772 (<= (+ ?x2753 (* (/ 9.0 4.0) A_0) (* (- (/ 9.0 4.0)) L_0) (* (- 3.0) S_2)) 0.0)))
 (and (<= ?x731 ?x722) (<= ?x749 ?x740) (<= ?x740 ?x731) (or $x1293 $x2772) (or $x651 $x1293 $x3275) $x94990 (or $x1293 (<= (+ ?x1499 ?x2033 S_3 (* (- 3.0) S_2)) 0.0)) (or $x651 $x1293 $x2452) (or $x651 $x1293 $x2806) (or $x1293 (not $x2806) $x2810) (or $x651 (<= (+ A_0 S_3 ?x1212 ?x731 L_3 ?x820) 0.0)) (or $x1293 $x1496 (<= (+ ?x749 ?x731 ?x3229 A_1 ?x1490 A_3) 0.0)) $x94962 (or $x1282 $x1496 $x3947) (or $x1282 $x1496 $x4721) (or $x1282 (<= (+ ?x1747 (* (- (/ 1.0 2.0)) S_3) ?x1748 S_1) 0.0)) (or $x1248 $x1496 $x4721) (or $x1282 $x1496 $x4047) (or $x1282 $x1496 (<= (+ ?x749 ?x731 ?x3229 A_1 ?x1490 A_3) 0.0)) (or $x1293 (<= (+ ?x735 L_2 S_3 A_0 ?x1294 ?x722) 0.0)) (or $x1293 (<= (+ ?x7376 ?x7348 ?x7347 A_0 ?x1294 ?x722) 0.0)) (or $x1248 $x1496 (<= (+ ?x749 ?x731 ?x3229 A_1 ?x1490 A_3) 0.0)) $x96241 (or $x1248 (not $x1496) (<= (+ ?x731 L_3) 0.0) $x2452) $x10654 (or $x1248 $x2452 $x11598) $x15360 (or $x1496 (<= (+ ?x731 S_2 ?x1212 L_2 A_0 ?x735) 0.0)) (or $x663 $x1282 $x1831 $x12853) $x97660 $x98073 (or $x1293 $x1496 $x4721) (or $x1321 $x1496 (<= (+ ?x749 ?x731 ?x3229 A_1 ?x1490 A_3) 0.0)) (or $x1248 $x4119 $x11598) (or $x1248 (<= (+ ?x758 L_0 S_2 ?x2040 ?x3273 ?x1474 ?x2041) 0.0) $x11598) (or $x1248 $x3275 $x11598) $x94850 (or $x1282 $x3275 $x11598) $x99141 (or $x1248 (<= (+ L_1 ?x744 S_3 ?x2040 ?x3273 ?x1474 ?x2041) 0.0) $x11598) (or $x1321 (<= (+ L_1 ?x744 S_3 ?x2040 ?x3273 ?x1474 ?x2041) 0.0) $x11598) $x18953 $x98060 (or $x1321 $x2452 $x11598) (or $x663 $x1282 $x9316 $x11598 $x12853) (or $x663 $x1282 $x2076 $x11598 $x12853) (or $x1282 (<= (+ ?x758 L_0 S_2 ?x2040 ?x3273 ?x1474 ?x2041) 0.0) $x11598) (or $x1282 (<= (+ L_1 ?x744 S_4 ?x2448 ?x2072 ?x1326 ?x2443) 0.0) $x11598) (or $x1282 $x2810 $x11598) (or $x663 $x1282 $x2076 $x9884 $x11598) (or $x663 $x1293 $x3291 $x3610) $x24115 (or $x1282 $x8140 $x11598) $x95833 (or $x1282 $x4119 $x11598) (or $x1248 $x3632 $x8140 $x11598) (or $x663 $x1248 $x2028 $x3291) (or $x1248 (<= (+ ?x2048 ?x2044 ?x2440 ?x1344 ?x2443) 0.0) $x3632 $x11598) $x99189 (or $x663 $x1248 $x3291 $x9316 $x11598) (or $x663 $x1248 $x9316 $x9884 $x11598) $x94998 (or $x1248 $x1496 $x11954) (or $x1248 $x1496 $x3947) $x49039 (or $x1321 (<= (+ L_1 ?x744 S_4 ?x2448 ?x2072 ?x1326 ?x2443) 0.0) $x11598) (or $x1321 $x2810 $x11598) (or $x663 $x1321 $x2076 $x9884 $x11598) (or $x1321 (<= (+ ?x758 L_0 S_2 ?x2040 ?x3273 ?x1474 ?x2041) 0.0) $x11598) (or $x663 $x1321 $x9316 $x11598) (or $x1321 $x4119 $x11598) (or $x663 $x1248 $x2076 $x9884 $x11598) (or $x1293 $x1496 $x3989) (or $x1248 $x9151) $x96987 (or $x1248 $x9488 $x11598) (or $x1293 $x1496 $x16368) $x98496 $x45787 $x99293 $x31078 (or $x1293 $x2455 $x3632 $x11598) (or $x1293 $x3632 $x8140 $x11598) (or $x1293 $x1496 $x22006) (or $x1293 $x3632 $x11598 $x17708) (or $x1321 $x2455 $x3632 $x11598) (or $x1282 $x9488 $x11598) (or $x1282 $x11598 $x17708) (or $x1321 $x3632 $x11598 $x17708) (or $x1282 $x1496 $x22006) $x95159 (or $x1321 $x1496 $x3947) (or $x1321 $x1496 $x11954) $x36623 (or $x1321 $x1496 $x22006) $x97609 $x97263 (or $x1321 $x1496 $x16368) (or $x1321 $x9488 $x11598) (or $x663 $x1282 $x9685 $x12853) (or $x1321 $x9758 $x11598) (or $x1321 $x11598 (<= (+ ?x1798 ?x1748 ?x13834 ?x1212 ?x731 L_3 ?x820) 0.0)) $x98545 (<= (+ L_3 S_4 (* (- 1.0) A_4)) 0.0) (<= (+ ?x1212 S_0) 0.0) (<= (+ L_1 ?x744 S_1) 0.0) (<= (+ ?x735 L_2 S_2) 0.0) (<= (+ L_3 ?x820 S_3) 0.0) (<= (+ ?x785 S_2) 0.0) (<= (+ ?x1189 S_3) 0.0) (<= (+ ?x758 L_0 S_0) 0.0) (<= (+ ?x1294 S_1) 0.0)))))))))))))))))))))))))))))))))))))))))))))))))))))))))))))))))))))))))))))))))))))))))))))))))))))))))))))))))))))))))))))))))))))))))))))))))))
(check-sat)
